benchmarks_vrp/CMT3/min_c/CMT3_4.vrp
NAME: CMT3_4
TYPE: CVRP
COMMENT: 826.14 - Cluster Nr.4
DIMENSION: 10
CAPACITY: 200
EDGE_WEIGHT_TYPE: EUC_2D
NODE_COORD_TYPE: TWOD_COORDS
NODE_COORD_SECTION: 
4 41 37
10 45 30
2 37 31
5 50 35
1 35 40
6 36 26
7 37 47
9 35 35
8 40 25
3 30 25
DEPOT_SECTION: 
9
-1
DEMAND_SECTION: 
1 16
6 18
10 17
9 0
2 14
8 9
5 19
3 23
4 16
7 6
EOF
