benchmarks_vrp/CMT3/min_c/CMT3_4.tour
NAME: CMT3_4 solution
TYPE: TOUR
TOUR_SECTION:
9 1 7 4 5 10 8 6 3 2 -1
-1
EOF